500
750
600
600
599
598
597
597
596
595
594
594
593
593
591
589
588
588
582
582
581
579
579
578
578
578
578
576
576
575
575
574
573
573
572
572
570
569
568
568
567
566
566
564
563
562
561
559
558
557
556
555
555
555
554
554
553
552
552
549
549
548
547
547
546
545
544
544
542
542
539
539
538
538
537
537
534
534
530
529
528
527
525
523
522
521
519
518
517
517
516
515
514
514
513
511
511
507
506
504
503
502
497
497
496
496
496
494
493
492
492
488
487
486
486
486
485
485
483
483
482
482
482
480
478
478
478
477
476
475
475
473
472
472
471
469
469
467
466
466
465
464
460
459
459
457
456
454
454
454
454
453
453
452
451
451
451
449
448
447
446
445
442
442
441
441
441
439
436
436
432
431
431
430
430
429
429
426
426
425
425
424
424
423
421
420
420
417
415
414
413
413
411
409
408
406
405
402
402
401
401
400
399
398
397
396
395
395
392
392
390
389
386
385
384
384
383
381
380
376
375
375
375
375
375
374
373
373
372
371
369
368
367
367
366
364
363
362
362
360
359
358
358
356
355
355
354
352
352
352
350
350
349
348
348
347
346
343
340
335
333
328
327
327
324
324
323
322
320
318
318
318
317
316
316
315
313
313
312
312
312
311
308
307
307
307
305
304
304
304
303
303
301
301
299
297
295
295
293
291
290
288
286
284
284
284
280
279
278
276
276
275
275
275
273
273
271
270
270
268
268
266
266
265
265
265
265
260
260
260
259
258
258
257
256
255
253
252
252
248
247
247
246
246
246
245
244
244
243
242
242
242
241
241
238
237
237
234
233
231
231
230
230
230
226
226
224
223
223
222
220
220
219
218
218
217
216
214
213
212
212
212
211
211
210
205
205
204
203
200
197
197
196
194
193
191
190
190
188
186
186
185
184
184
184
183
183
183
182
180
180
179
177
173
173
173
173
172
172
171
171
170
170
170
169
168
167
165
165
165
163
160
160
159
158
157
157
155
154
153
153
152
151
147
147
147
145
145
145
144
144
143
142
142
141
140
140
139
139
137
136
136
135
135
134
134
134
133
133
129
127
126
123
123
122
122
121
120
119
116
116
111
111
108
107
107
107
106
99
99
99
97
93
92
92
90
80
79
78
78
77
75
